Gamma-point only for large supercell MD
0
Monokhorst-Pack
 1  1  1
 0  0  0
