Graphene-TiO2 Production MD 300K        
           1
     8.877000    0.000000    0.000000
     0.000000   12.990966    0.000000
     0.000000    0.000000   29.826986
   Ti   O    C 
    24    48    48
Direct
   0.99850069  0.00249852  0.02377197
   0.16515415  0.25165550  0.06452568
   0.16548828  0.00287525  0.14724984
   0.99971889  0.25245852  0.18750556
   0.99745784  0.50199176  0.02653620
   0.16458721  0.75283672  0.06429754
   0.16564123  0.50280126  0.14736696
   0.99884895  0.75256248  0.18693214
   0.33215762  0.00195665  0.02520813
   0.49938099  0.25210477  0.06045452
   0.49883003  0.00209932  0.15092998
   0.33456619  0.25246510  0.18255039
   0.33147137  0.50216988  0.02603731
   0.49874584  0.75243591  0.06085117
   0.49719504  0.50301866  0.15274025
   0.33307914  0.75319726  0.18415477
   0.66542059  0.00223845  0.02031867
   0.83222172  0.25189447  0.06080618
   0.83193578  0.00300138  0.15346337
   0.66503273  0.25220617  0.19720025
   0.66466756  0.50248876  0.02029934
   0.83177393  0.75294324  0.06070066
   0.83380998  0.50199442  0.15451877
   0.66535930  0.75277417  0.19647987
   0.16501966  0.38724411  0.03982423
   0.16487700  0.11679228  0.03880160
   0.16548005  0.13797974  0.17284133
   0.16581577  0.36343419  0.17214221
   0.99132245  0.00309048  0.11153890
   0.99823288  0.00289478  0.96784494
   0.00739008  0.25241459  0.24387671
   0.99432644  0.25103923  0.10196985
   0.16417145  0.88756068  0.03854664
   0.16444631  0.61707583  0.03987062
   0.16499129  0.64180167  0.17242076
   0.16453900  0.86795072  0.17299131
   0.99056936  0.50228583  0.11149321
   0.00056274  0.50205299  0.97054902
   0.99465558  0.75305964  0.24332256
   0.99397536  0.75384070  0.10183996
   0.49974758  0.38801994  0.03600147
   0.49989723  0.11622704  0.03576867
   0.50411593  0.13707678  0.17668592
   0.50406368  0.36475859  0.17715585
   0.33661149  0.00234197  0.10980983
   0.32725137  0.00216246  0.96924655
   0.34028599  0.25054257  0.23902760
   0.33725550  0.25069795  0.10186474
   0.49980730  0.88787356  0.03566853
   0.49941079  0.61692976  0.03611179
   0.50202274  0.64099358  0.17800498
   0.50295393  0.86719595  0.17729428
   0.33847396  0.50269677  0.11041427
   0.32977008  0.50209167  0.97004320
   0.32572330  0.75612136  0.24053370
   0.33571759  0.75403089  0.10191398
   0.82924892  0.38785400  0.03616174
   0.83087789  0.11675418  0.03512817
   0.82995955  0.13814082  0.17970058
   0.82979056  0.36378211  0.17967928
   0.66823172  0.00227697  0.11362739
   0.66287242  0.00183459  0.96447267
   0.66926935  0.25221488  0.25352276
   0.66537046  0.25102174  0.09902833
   0.83107275  0.88811176  0.03518245
   0.82964787  0.61718794  0.03603576
   0.82923839  0.64023998  0.17917002
   0.82931185  0.86730192  0.17890797
   0.66743392  0.50242734  0.11563739
   0.66464258  0.50260285  0.96446034
   0.66044910  0.75374204  0.25277927
   0.66529337  0.75353924  0.09921712
   0.99755988  0.99510614  0.34349979
   0.11911362  0.05165037  0.32565116
   0.11930139  0.16159095  0.32608094
   0.99755046  0.21802034  0.34374970
   0.99731731  0.32831823  0.34358333
   0.11897069  0.38488088  0.32580587
   0.11898249  0.49488848  0.32553002
   0.99759187  0.55145567  0.34345759
   0.99800250  0.66184960  0.34392155
   0.11970431  0.71834100  0.32648797
   0.11961468  0.82826643  0.32629972
   0.99790863  0.88465717  0.34382665
   0.25452904  0.99482415  0.32174242
   0.38331080  0.05149592  0.33464604
   0.38286273  0.16166644  0.33514987
   0.25418919  0.21826419  0.32273192
   0.25408201  0.32824095  0.32256035
   0.38304779  0.38477348  0.33481046
   0.38338915  0.49505198  0.33451212
   0.25444262  0.55171080  0.32180607
   0.25438829  0.66152786  0.32234574
   0.38306685  0.71813913  0.33508968
   0.38329658  0.82826122  0.33486209
   0.25456896  0.88492068  0.32200991
   0.49844692  0.99514219  0.35565688
   0.61916294  0.05168150  0.37385841
   0.61924005  0.16167011  0.37386348
   0.49827360  0.21804088  0.35594364
   0.49833370  0.32847415  0.35580037
   0.61919475  0.38490238  0.37381869
   0.61923080  0.49491977  0.37378656
   0.49842774  0.55136828  0.35564802
   0.49814736  0.66187109  0.35593605
   0.61926254  0.71828549  0.37396535
   0.61919096  0.82815628  0.37395148
   0.49839228  0.88457082  0.35571460
   0.75455745  0.99476778  0.37799043
   0.88291455  0.05141161  0.36479813
   0.88296460  0.16181518  0.36488476
   0.75452802  0.21848018  0.37803242
   0.75452608  0.32805522  0.37805976
   0.88294649  0.38462921  0.36476467
   0.88297904  0.49506194  0.36472141
   0.75467121  0.55170202  0.37798457
   0.75455264  0.66140287  0.37798731
   0.88308890  0.71806804  0.36506311
   0.88307660  0.82833315  0.36505494
   0.75457884  0.88498707  0.37805014
